c A SAT instance generated from a 3-CNF formula that had 39 clauses and 13 variables
p cnf 13 39
-7 -1 9 0
-3 5 -10 0
-3 -1 -5 0
-8 -9 -5 0
9 -12 3 0
12 -8 7 0
3 -5 -4 0
-5 2 -7 0
-10 12 11 0
-2 -11 12 0
1 -7 -12 0
3 -13 2 0
9 -2 13 0
-13 -2 -11 0
4 5 11 0
-13 12 7 0
-13 8 7 0
-2 13 10 0
7 3 4 0
-6 -2 11 0
-11 -12 -4 0
9 3 -12 0
-3 5 -9 0
1 -2 12 0
4 -9 -8 0
3 5 9 0
13 9 -5 0
-7 -1 -6 0
-2 -3 6 0
-3 13 -11 0
-9 -5 13 0
4 5 -9 0
9 -4 2 0
10 -9 4 0
13 -9 -11 0
5 -3 8 0
8 -6 -5 0
-6 2 12 0
2 -11 10 0
